Nb of jobs, Nb of Machines, Time seed, Machine seed, Upper bound, Lower bound
3,8,-1,-1,-1,-1
Times
11,96,76,42,28,78,27,43
92,53,11,60,36,68,25,31
8,31,33,83,63,73,59,79
Machines
1,5,2,6,7,4,3,8
1,8,6,4,7,5,3,2
3,1,5,6,2,8,7,4
